tsp/cities.tsp.txt
NAME : lu980
COMMENT : 980 locations in Luxembourg
COMMENT : Derived from National Imagery and Mapping Agency data
COMMENT : Cut down from 980 to 15
TYPE : TSP
DIMENSION : 980
EDGE_WEIGHT_TYPE : EUC_2D
NODE_COORD_SECTION
1 49525.5556 5940.5556
2 49515.5357 6120.5456
3 49738.8889 6345.0000
4 49608.3333 6405.8333
5 49796.6667 6155.5556
6 49828.6111 5764.7222
7 49757.7778 6353.3333
8 49716.3889 6490.0000
9 49533.3333 6316.6667
10 49716.3889 6490.0000
11 49616.6667 6233.3333
12 49533.3333 6316.6667
13 49501.3889 6352.7778
14 50053.3333 5919.1667
15 49967.7778 5890.2778
EOF
