cities.txt
Boston	Hartsville	23
New York	Hartsville	20
New York	Boston	5
Columbia	Hartsville	2
Columbia	Boston	24
Columbia	New York	21
Silicon Valley	Hartsville	42
Silicon Valley	Boston	47
Silicon Valley	New York	45
Silicon Valley	Columbia	40
